SCIP version 8.0.0 [precision: 8 byte] [memory: block] [mode: optimized] [LP solver: SoPlex 6.0.0] [GitHash: a740f0891e]
Copyright (C) 2002-2021 Konrad-Zuse-Zentrum fuer Informationstechnik Berlin (ZIB)

read problem </home/danilo/cbc-test-set/p0548.mps.gz> ...

original problem has 548 variables (548 bin, 0 int, 0 impl, 0 cont) and 176 constraints
solve problem ...

presolving:
   Deactivated symmetry handling methods, since SCIP was built without symmetry detector (SYM=none).
presolving (0 rounds: 0 fast, 0 medium, 0 exhaustive):
 0 deleted vars, 0 deleted constraints, 0 added constraints, 0 tightened bounds, 0 added holes, 0 changed sides, 0 changed coefficients
 0 implications, 0 cliques
presolved problem has 548 variables (548 bin, 0 int, 0 impl, 0 cont) and 176 constraints
    176 constraints of type <linear>
transformed objective value is always integral (scale: 1)
Presolving Time: 0.00

 time | node  | left  |LP iter|LP it/n|mem/heur|mdpt |vars |cons |rows |cuts |sepa|confs|strbr|  dualbound   | primalbound  |  gap   | compl. 
  0.0s|     1 |     0 |    69 |     - |  2973k |   0 | 548 | 176 | 166 |   0 |  0 |   0 |   0 | 3.152549e+02 |      --      |    Inf | unknown
  0.0s|     1 |     0 |   197 |     - |  3116k |   0 | 548 | 176 | 195 |  30 |  1 |   0 |   0 | 1.059624e+03 |      --      |    Inf | unknown
  0.0s|     1 |     0 |   216 |     - |  3181k |   0 | 548 | 176 | 200 |  35 |  2 |   0 |   0 | 1.266615e+03 |      --      |    Inf | unknown
  0.0s|     1 |     0 |   272 |     - |  3198k |   0 | 548 | 176 | 229 |  64 |  3 |   0 |   0 | 1.746022e+03 |      --      |    Inf | unknown
  0.0s|     1 |     0 |   325 |     - |  3264k |   0 | 548 | 176 | 257 |  92 |  4 |   0 |   0 | 2.171506e+03 |      --      |    Inf | unknown
  0.0s|     1 |     0 |   388 |     - |  3384k |   0 | 548 | 176 | 279 | 115 |  5 |   0 |   0 | 2.438427e+03 |      --      |    Inf | unknown
  0.0s|     1 |     0 |   471 |     - |  3401k |   0 | 548 | 176 | 298 | 134 |  6 |   0 |   0 | 3.112862e+03 |      --      |    Inf | unknown
  0.0s|     1 |     0 |   532 |     - |  3401k |   0 | 548 | 176 | 319 | 157 |  7 |   0 |   0 | 3.451487e+03 |      --      |    Inf | unknown
  0.0s|     1 |     0 |   580 |     - |  3462k |   0 | 548 | 176 | 326 | 168 |  8 |   0 |   0 | 3.723915e+03 |      --      |    Inf | unknown
  0.0s|     1 |     0 |   611 |     - |  3462k |   0 | 548 | 176 | 333 | 178 |  9 |   0 |   0 | 3.828549e+03 |      --      |    Inf | unknown
  0.0s|     1 |     0 |   636 |     - |  3462k |   0 | 548 | 176 | 343 | 188 | 10 |   0 |   0 | 3.875713e+03 |      --      |    Inf | unknown
  0.0s|     1 |     0 |   657 |     - |  3593k |   0 | 548 | 176 | 349 | 194 | 11 |   0 |   0 | 3.995733e+03 |      --      |    Inf | unknown
  0.0s|     1 |     0 |   664 |     - |  3593k |   0 | 548 | 176 | 352 | 197 | 12 |   0 |   0 | 4.003580e+03 |      --      |    Inf | unknown
  0.0s|     1 |     0 |   702 |     - |  3593k |   0 | 548 | 176 | 377 | 222 | 13 |   0 |   0 | 4.295929e+03 |      --      |    Inf | unknown
  0.0s|     1 |     0 |   758 |     - |  3594k |   0 | 548 | 176 | 399 | 244 | 14 |   0 |   0 | 4.587463e+03 |      --      |    Inf | unknown
 time | node  | left  |LP iter|LP it/n|mem/heur|mdpt |vars |cons |rows |cuts |sepa|confs|strbr|  dualbound   | primalbound  |  gap   | compl. 
  0.0s|     1 |     0 |   813 |     - |  3626k |   0 | 548 | 176 | 416 | 261 | 15 |   0 |   0 | 4.911239e+03 |      --      |    Inf | unknown
  0.0s|     1 |     0 |   850 |     - |  3626k |   0 | 548 | 176 | 432 | 277 | 16 |   0 |   0 | 5.072911e+03 |      --      |    Inf | unknown
  0.0s|     1 |     0 |   871 |     - |  3626k |   0 | 548 | 176 | 411 | 284 | 17 |   0 |   0 | 5.214321e+03 |      --      |    Inf | unknown
  0.0s|     1 |     0 |   893 |     - |  3866k |   0 | 548 | 176 | 417 | 290 | 18 |   0 |   0 | 5.285022e+03 |      --      |    Inf | unknown
  0.0s|     1 |     0 |   908 |     - |  3866k |   0 | 548 | 176 | 423 | 296 | 19 |   0 |   0 | 5.316961e+03 |      --      |    Inf | unknown
  0.0s|     1 |     0 |   926 |     - |  3866k |   0 | 548 | 176 | 424 | 302 | 20 |   0 |   0 | 5.372398e+03 |      --      |    Inf | unknown
  0.0s|     1 |     0 |   941 |     - |  3866k |   0 | 548 | 176 | 428 | 306 | 21 |   0 |   0 | 5.466948e+03 |      --      |    Inf | unknown
  0.0s|     1 |     0 |   953 |     - |  3866k |   0 | 548 | 176 | 433 | 311 | 22 |   0 |   0 | 5.496127e+03 |      --      |    Inf | unknown
  0.0s|     1 |     0 |   990 |     - |  3873k |   0 | 548 | 176 | 419 | 332 | 23 |   0 |   0 | 5.637950e+03 |      --      |    Inf | unknown
  0.0s|     1 |     0 |  1013 |     - |  3873k |   0 | 548 | 176 | 433 | 346 | 24 |   0 |   0 | 5.701093e+03 |      --      |    Inf | unknown
  0.1s|     1 |     0 |  1033 |     - |  3902k |   0 | 548 | 176 | 440 | 353 | 25 |   0 |   0 | 5.754905e+03 |      --      |    Inf | unknown
  0.1s|     1 |     0 |  1041 |     - |  3903k |   0 | 548 | 176 | 444 | 357 | 26 |   0 |   0 | 5.774698e+03 |      --      |    Inf | unknown
  0.1s|     1 |     0 |  1046 |     - |  3903k |   0 | 548 | 176 | 446 | 359 | 27 |   0 |   0 | 5.777885e+03 |      --      |    Inf | unknown
  0.1s|     1 |     0 |  1049 |     - |  3903k |   0 | 548 | 176 | 447 | 360 | 28 |   0 |   0 | 5.779157e+03 |      --      |    Inf | unknown
  0.1s|     1 |     0 |  1051 |     - |  3903k |   0 | 548 | 176 | 410 | 361 | 29 |   0 |   0 | 5.779399e+03 |      --      |    Inf | unknown
 time | node  | left  |LP iter|LP it/n|mem/heur|mdpt |vars |cons |rows |cuts |sepa|confs|strbr|  dualbound   | primalbound  |  gap   | compl. 
  0.1s|     1 |     0 |  1054 |     - |  3903k |   0 | 548 | 176 | 411 | 362 | 30 |   0 |   0 | 5.792842e+03 |      --      |    Inf | unknown
  0.1s|     1 |     0 |  1081 |     - |  3903k |   0 | 548 | 176 | 421 | 372 | 31 |   0 |   0 | 5.903048e+03 |      --      |    Inf | unknown
  0.1s|     1 |     0 |  1092 |     - |  3903k |   0 | 548 | 176 | 427 | 378 | 32 |   0 |   0 | 5.990281e+03 |      --      |    Inf | unknown
  0.1s|     1 |     0 |  1104 |     - |  3903k |   0 | 548 | 176 | 429 | 380 | 33 |   0 |   0 | 6.011215e+03 |      --      |    Inf | unknown
  0.1s|     1 |     0 |  1113 |     - |  3918k |   0 | 548 | 176 | 434 | 385 | 34 |   0 |   0 | 6.021316e+03 |      --      |    Inf | unknown
  0.1s|     1 |     0 |  1123 |     - |  3918k |   0 | 548 | 176 | 394 | 388 | 35 |   0 |   0 | 6.037163e+03 |      --      |    Inf | unknown
  0.1s|     1 |     2 |  1123 |     - |  3918k |   0 | 548 | 176 | 394 | 388 | 36 |   0 |   0 | 6.037163e+03 |      --      |    Inf | unknown

SCIP Status        : solving was interrupted [node limit reached]
Solving Time (sec) : 0.07
Solving Nodes      : 1
Primal Bound       : +1.00000000000000e+20 (0 solutions)
Dual Bound         : +6.03716273682654e+03
Gap                : infinite
primal solution:
no solution available
Statistics:
SCIP Status        : solving was interrupted [node limit reached]
Total Time         :       0.07
  solving          :       0.07
  presolving       :       0.00 (included in solving)
  reading          :       0.00
  copying          :       0.00 (0 times copied the problem)
Original Problem   :
  Problem name     : P0548
  Variables        : 548 (548 binary, 0 integer, 0 implicit integer, 0 continuous)
  Constraints      : 176 initial, 176 maximal
  Objective        : minimize, 416 non-zeros (abs.min = 5, abs.max = 11000)
Presolved Problem  :
  Problem name     : t_P0548
  Variables        : 548 (548 binary, 0 integer, 0 implicit integer, 0 continuous)
  Constraints      : 176 initial, 176 maximal
  Objective        : minimize, 416 non-zeros (abs.min = 5, abs.max = 11000)
  Nonzeros         : 1711 constraint, 0 clique table
Presolvers         :   ExecTime  SetupTime  Calls  FixedVars   AggrVars   ChgTypes  ChgBounds   AddHoles    DelCons    AddCons   ChgSides   ChgCoefs
  boundshift       :       0.00       0.00      0          0          0          0          0          0          0          0          0          0
  convertinttobin  :       0.00       0.00      0          0          0          0          0          0          0          0          0          0
  domcol           :       0.00       0.00      0          0          0          0          0          0          0          0          0          0
  dualagg          :       0.00       0.00      0          0          0          0          0          0          0          0          0          0
  dualcomp         :       0.00       0.00      0          0          0          0          0          0          0          0          0          0
  dualinfer        :       0.00       0.00      0          0          0          0          0          0          0          0          0          0
  dualsparsify     :       0.00       0.00      0          0          0          0          0          0          0          0          0          0
  gateextraction   :       0.00       0.00      0          0          0          0          0          0          0          0          0          0
  implics          :       0.00       0.00      0          0          0          0          0          0          0          0          0          0
  inttobinary      :       0.00       0.00      0          0          0          0          0          0          0          0          0          0
  qpkktref         :       0.00       0.00      0          0          0          0          0          0          0          0          0          0
  redvub           :       0.00       0.00      0          0          0          0          0          0          0          0          0          0
  sparsify         :       0.00       0.00      0          0          0          0          0          0          0          0          0          0
  stuffing         :       0.00       0.00      0          0          0          0          0          0          0          0          0          0
  trivial          :       0.00       0.00      0          0          0          0          0          0          0          0          0          0
  tworowbnd        :       0.00       0.00      0          0          0          0          0          0          0          0          0          0
  dualfix          :       0.00       0.00      0          0          0          0          0          0          0          0          0          0
  genvbounds       :       0.00       0.00      0          0          0          0          0          0          0          0          0          0
  probing          :       0.00       0.00      0          0          0          0          0          0          0          0          0          0
  pseudoobj        :       0.00       0.00      0          0          0          0          0          0          0          0          0          0
  symmetry         :       0.00       0.00      0          0          0          0          0          0          0          0          0          0
  vbounds          :       0.00       0.00      0          0          0          0          0          0          0          0          0          0
  linear           :       0.00       0.00      0          0          0          0          0          0          0          0          0          0
  benders          :       0.00       0.00      0          0          0          0          0          0          0          0          0          0
  components       :       0.00       0.00      0          0          0          0          0          0          0          0          0          0
  root node        :          -          -      -          6          -          -          6          -          -          -          -          -
Constraints        :     Number  MaxNumber  #Separate #Propagate    #EnfoLP    #EnfoRelax  #EnfoPS    #Check   #ResProp    Cutoffs    DomReds       Cuts    Applied      Conss   Children
  benderslp        :          0          0          0          0          1          0          0          1          0          0          0          0          0          0          0
  integral         :          0          0          0          0          1          0          0          1          0          0          0          0          0          0          2
  linear           :        176        176          0          0          0          0          0          0          0          0          0          0          0          0          0
  benders          :          0          0          0          0          0          0          0          0          0          0          0          0          0          0          0
  countsols        :          0          0          0          0          0          0          0          0          0          0          0          0          0          0          0
  components       :          0          0          0          0          0          0          0          0          0          0          0          0          0          0          0
Constraint Timings :  TotalTime  SetupTime   Separate  Propagate     EnfoLP     EnfoPS     EnfoRelax   Check    ResProp    SB-Prop
  benderslp        :       0.00       0.00       0.00       0.00       0.00       0.00       0.00       0.00       0.00       0.00
  integral         :       0.00       0.00       0.00       0.00       0.00       0.00       0.00       0.00       0.00       0.00
  linear           :       0.00       0.00       0.00       0.00       0.00       0.00       0.00       0.00       0.00       0.00
  benders          :       0.00       0.00       0.00       0.00       0.00       0.00       0.00       0.00       0.00       0.00
  countsols        :       0.00       0.00       0.00       0.00       0.00       0.00       0.00       0.00       0.00       0.00
  components       :       0.00       0.00       0.00       0.00       0.00       0.00       0.00       0.00       0.00       0.00
Propagators        : #Propagate   #ResProp    Cutoffs    DomReds
  dualfix          :          0          0          0          0
  genvbounds       :          0          0          0          0
  nlobbt           :          0          0          0          0
  obbt             :          0          0          0          0
  probing          :          0          0          0          0
  pseudoobj        :          0          0          0          0
  redcost          :          0          0          0          0
  rootredcost      :          0          0          0          0
  symmetry         :          0          0          0          0
  vbounds          :          0          0          0          0
Propagator Timings :  TotalTime  SetupTime   Presolve  Propagate    ResProp    SB-Prop
  dualfix          :       0.00       0.00       0.00       0.00       0.00       0.00
  genvbounds       :       0.00       0.00       0.00       0.00       0.00       0.00
  nlobbt           :       0.00       0.00       0.00       0.00       0.00       0.00
  obbt             :       0.00       0.00       0.00       0.00       0.00       0.00
  probing          :       0.00       0.00       0.00       0.00       0.00       0.00
  pseudoobj        :       0.00       0.00       0.00       0.00       0.00       0.00
  redcost          :       0.00       0.00       0.00       0.00       0.00       0.00
  rootredcost      :       0.00       0.00       0.00       0.00       0.00       0.00
  symmetry         :       0.00       0.00       0.00       0.00       0.00       0.00
  vbounds          :       0.00       0.00       0.00       0.00       0.00       0.00
Conflict Analysis  :       Time      Calls    Success    DomReds  Conflicts   Literals    Reconvs ReconvLits   Dualrays   Nonzeros   LP Iters   (pool size: [--,--])
  propagation      :       0.00          0          0          -          0        0.0          0        0.0          -          -          -
  infeasible LP    :       0.00          0          0          -          0        0.0          0        0.0          0        0.0          0
  bound exceed. LP :       0.00          0          0          -          0        0.0          0        0.0          0        0.0          0
  strong branching :       0.00          0          0          -          0        0.0          0        0.0          -          -          0
  pseudo solution  :       0.00          0          0          -          0        0.0          0        0.0          -          -          -
  applied globally :       0.00          -          -          0          0        0.0          -          -          0          -          -
  applied locally  :          -          -          -          0          0        0.0          -          -          0          -          -
Separators         :   ExecTime  SetupTime      Calls    Cutoffs    DomReds       Cuts    Applied      Conss
  cut pool         :       0.00                    68          -          -        655          -          -    (maximal pool size: 756)
  aggregation      :       0.02       0.00         36          0          0        762        382          0
  > cmir           :          -          -          -          -          -          -          0          -
  > flowcover      :          -          -          -          -          -          -          0          -
  > knapsackcover  :          -          -          -          -          -          -        382          -
  cgmip            :       0.00       0.00          0          0          0          0          0          0
  clique           :       0.00       0.00          0          0          0          0          0          0
  closecuts        :       0.00       0.00          0          0          0          0          0          0
  convexproj       :       0.00       0.00          0          0          0          0          0          0
  disjunctive      :       0.00       0.00          0          0          0          0          0          0
  eccuts           :       0.00       0.00          0          0          0          0          0          0
  gauge            :       0.00       0.00          0          0          0          0          0          0
  gmi              :       0.00       0.00          0          0          0          0          0          0
  gomory           :       0.00       0.00          0          0          0          0          0          0
  > gomorymi       :          -          -          -          -          -          -          0          -
  > strongcg       :          -          -          -          -          -          -          0          -
  impliedbounds    :       0.00       0.00          0          0          0          0          0          0
  interminor       :       0.00       0.00          0          0          0          0          0          0
  intobj           :       0.00       0.00          0          0          0          0          0          0
  mcf              :       0.00       0.00          0          0          0          0          0          0
  minor            :       0.00       0.00          0          0          0          0          0          0
  mixing           :       0.00       0.00          0          0          0          0          0          0
  oddcycle         :       0.00       0.00          0          0          0          0          0          0
  rapidlearning    :       0.00       0.00          0          0          0          0          0          0
  rlt              :       0.00       0.00          0          0          0          0          0          0
  zerohalf         :       0.00       0.00          0          0          0          0          0          0
Cutselectors       :   ExecTime  SetupTime
  hybrid           :       0.00       0.00
Pricers            :   ExecTime  SetupTime      Calls       Vars
  problem variables:       0.00          -          0          0
Branching Rules    :   ExecTime  SetupTime   BranchLP  BranchExt   BranchPS    Cutoffs    DomReds       Cuts      Conss   Children
  allfullstrong    :       0.00       0.00          0          0          0          0          0          0          0          0
  cloud            :       0.00       0.00          0          0          0          0          0          0          0          0
  distribution     :       0.00       0.00          0          0          0          0          0          0          0          0
  fullstrong       :       0.00       0.00          0          0          0          0          0          0          0          0
  inference        :       0.00       0.00          0          0          0          0          0          0          0          0
  leastinf         :       0.00       0.00          0          0          0          0          0          0          0          0
  lookahead        :       0.00       0.00          0          0          0          0          0          0          0          0
  mostinf          :       0.00       0.00          0          0          0          0          0          0          0          0
  multaggr         :       0.00       0.00          0          0          0          0          0          0          0          0
  nodereopt        :       0.00       0.00          0          0          0          0          0          0          0          0
  pscost           :       0.00       0.00          1          0          0          0          0          0          0          2
  random           :       0.00       0.00          0          0          0          0          0          0          0          0
  relpscost        :       0.00       0.00          0          0          0          0          0          0          0          0
  vanillafullstrong:       0.00       0.00          0          0          0          0          0          0          0          0
Primal Heuristics  :   ExecTime  SetupTime      Calls      Found       Best
  LP solutions     :       0.00          -          -          0          0
  relax solutions  :       0.00          -          -          0          0
  pseudo solutions :       0.00          -          -          0          0
  strong branching :       0.00          -          -          0          0
  actconsdiving    :       0.00       0.00          0          0          0
  adaptivediving   :       0.00       0.00          0          0          0
  alns             :       0.00       0.00          0          0          0
  bound            :       0.00       0.00          0          0          0
  clique           :       0.00       0.00          0          0          0
  coefdiving       :       0.00       0.00          0          0          0
  completesol      :       0.00       0.00          0          0          0
  conflictdiving   :       0.00       0.00          0          0          0
  crossover        :       0.00       0.00          0          0          0
  dins             :       0.00       0.00          0          0          0
  distributiondivin:       0.00       0.00          0          0          0
  dps              :       0.00       0.00          0          0          0
  dualval          :       0.00       0.00          0          0          0
  farkasdiving     :       0.00       0.00          0          0          0
  feaspump         :       0.00       0.00          0          0          0
  fixandinfer      :       0.00       0.00          0          0          0
  fracdiving       :       0.00       0.00          0          0          0
  gins             :       0.00       0.00          0          0          0
  guideddiving     :       0.00       0.00          0          0          0
  indicator        :       0.00       0.00          0          0          0
  intdiving        :       0.00       0.00          0          0          0
  intshifting      :       0.00       0.00          0          0          0
  linesearchdiving :       0.00       0.00          0          0          0
  localbranching   :       0.00       0.00          0          0          0
  locks            :       0.00       0.00          0          0          0
  lpface           :       0.00       0.00          0          0          0
  mpec             :       0.00       0.00          0          0          0
  multistart       :       0.00       0.00          0          0          0
  mutation         :       0.00       0.00          0          0          0
  nlpdiving        :       0.00       0.00          0          0          0
  objpscostdiving  :       0.00       0.00          0          0          0
  octane           :       0.00       0.00          0          0          0
  ofins            :       0.00       0.00          0          0          0
  oneopt           :       0.00       0.00          0          0          0
  padm             :       0.00       0.00          0          0          0
  proximity        :       0.00       0.00          0          0          0
  pscostdiving     :       0.00       0.00          0          0          0
  randrounding     :       0.00       0.00          0          0          0
  rens             :       0.00       0.00          0          0          0
  reoptsols        :       0.00       0.00          0          0          0
  repair           :       0.00       0.00          0          0          0
  rins             :       0.00       0.00          0          0          0
  rootsoldiving    :       0.00       0.00          0          0          0
  rounding         :       0.00       0.00          0          0          0
  shiftandpropagate:       0.00       0.00          0          0          0
  shifting         :       0.00       0.00          0          0          0
  simplerounding   :       0.00       0.00          0          0          0
  subnlp           :       0.00       0.00          0          0          0
  trivial          :       0.00       0.00          0          0          0
  trivialnegation  :       0.00       0.00          0          0          0
  trustregion      :       0.00       0.00          0          0          0
  trysol           :       0.00       0.00          0          0          0
  twoopt           :       0.00       0.00          0          0          0
  undercover       :       0.00       0.00          0          0          0
  vbounds          :       0.00       0.00          0          0          0
  veclendiving     :       0.00       0.00          0          0          0
  zeroobj          :       0.00       0.00          0          0          0
  zirounding       :       0.00       0.00          0          0          0
  other solutions  :          -          -          -          0          -
Diving (single)    :      Calls      Nodes   LP Iters Backtracks  Conflicts   MinDepth   MaxDepth   AvgDepth  RoundSols  NLeafSols  MinSolDpt  MaxSolDpt  AvgSolDpt
  actconsdiving    :          0          -          -          -          -          -          -          -          -          -          -          -          -
  coefdiving       :          0          -          -          -          -          -          -          -          -          -          -          -          -
  conflictdiving   :          0          -          -          -          -          -          -          -          -          -          -          -          -
  distributiondivin:          0          -          -          -          -          -          -          -          -          -          -          -          -
  farkasdiving     :          0          -          -          -          -          -          -          -          -          -          -          -          -
  fracdiving       :          0          -          -          -          -          -          -          -          -          -          -          -          -
  guideddiving     :          0          -          -          -          -          -          -          -          -          -          -          -          -
  linesearchdiving :          0          -          -          -          -          -          -          -          -          -          -          -          -
  pscostdiving     :          0          -          -          -          -          -          -          -          -          -          -          -          -
  veclendiving     :          0          -          -          -          -          -          -          -          -          -          -          -          -
Diving (adaptive)  :      Calls      Nodes   LP Iters Backtracks  Conflicts   MinDepth   MaxDepth   AvgDepth  RoundSols  NLeafSols  MinSolDpt  MaxSolDpt  AvgSolDpt
  actconsdiving    :          0          -          -          -          -          -          -          -          -          -          -          -          -
  coefdiving       :          0          -          -          -          -          -          -          -          -          -          -          -          -
  conflictdiving   :          0          -          -          -          -          -          -          -          -          -          -          -          -
  distributiondivin:          0          -          -          -          -          -          -          -          -          -          -          -          -
  farkasdiving     :          0          -          -          -          -          -          -          -          -          -          -          -          -
  fracdiving       :          0          -          -          -          -          -          -          -          -          -          -          -          -
  guideddiving     :          0          -          -          -          -          -          -          -          -          -          -          -          -
  linesearchdiving :          0          -          -          -          -          -          -          -          -          -          -          -          -
  pscostdiving     :          0          -          -          -          -          -          -          -          -          -          -          -          -
  veclendiving     :          0          -          -          -          -          -          -          -          -          -          -          -          -
Neighborhoods      :      Calls  SetupTime  SolveTime SolveNodes       Sols       Best       Exp3  EpsGreedy        UCB TgtFixRate  Opt  Inf Node Stal  Sol  Usr Othr Actv
  rens             :          0       0.00       0.00          0          0          0    0.00000   -1.00000    1.00000      0.900    0    0    0    0    0    0    0    1
  rins             :          0       0.00       0.00          0          0          0    0.00000   -1.00000    1.00000      0.900    0    0    0    0    0    0    0    1
  mutation         :          0       0.00       0.00          0          0          0    0.00000   -1.00000    1.00000      0.900    0    0    0    0    0    0    0    1
  localbranching   :          0       0.00       0.00          0          0          0    0.00000   -1.00000    1.00000      0.900    0    0    0    0    0    0    0    1
  crossover        :          0       0.00       0.00          0          0          0    0.00000   -1.00000    1.00000      0.900    0    0    0    0    0    0    0    1
  proximity        :          0       0.00       0.00          0          0          0    0.00000   -1.00000    1.00000      0.900    0    0    0    0    0    0    0    1
  zeroobjective    :          0       0.00       0.00          0          0          0    0.00000   -1.00000    1.00000      0.900    0    0    0    0    0    0    0    1
  dins             :          0       0.00       0.00          0          0          0    0.00000   -1.00000    1.00000      0.900    0    0    0    0    0    0    0    1
  trustregion      :          0       0.00       0.00          0          0          0    0.00000   -1.00000    1.00000      0.900    0    0    0    0    0    0    0    0
LP                 :       Time      Calls Iterations  Iter/call   Iter/sec  Time-0-It Calls-0-It    ItLimit
  primal LP        :       0.00          4          0       0.00          -       0.00          4
  dual LP          :       0.03         36       1123      31.19   32786.41       0.00          0
  lex dual LP      :       0.00          0          0       0.00          -
  barrier LP       :       0.00          0          0       0.00          -       0.00          0
  resolve instable :       0.00          0          0       0.00          -
  diving/probing LP:       0.00          0          0       0.00          -
  strong branching :       0.00          0          0       0.00          -          -          -          0
    (at root node) :          -          0          0       0.00          -
  conflict analysis:       0.00          0          0       0.00          -
B&B Tree           :
  number of runs   :          1
  nodes            :          1 (1 internal, 0 leaves)
  feasible leaves  :          0
  infeas. leaves   :          0
  objective leaves :          0
  nodes (total)    :          1 (1 internal, 0 leaves)
  nodes left       :          2
  max depth        :          0
  max depth (total):          0
  backtracks       :          0 (0.0%)
  early backtracks :          0 (0.0%)
  nodes exc. ref.  :          0 (0.0%)
  delayed cutoffs  :          0
  repropagations   :          0 (0 domain reductions, 0 cutoffs)
  avg switch length:       1.00
  switching time   :       0.00
Estim. Tree Size   :         -1
Estimation Tree    : 3 nodes (1 visited, 1 internal, 0 leaves, 2 open), weight: 0.0000 completed 0.0000
Estimations        :      estim      value      trend resolution     smooth
  wbe              :         -1          -          -          -          -
  tree-profile     :         -1          -          -          -          -
  gap              :         -1    0.00000                     1           
  tree-weight      :         -1    0.00000                     1           
  leaf-frequency   :         -1   -0.50000                     1           
  ssg              :         -1    1.00000                     1           
  open-nodes       :         -1    2.00000                     1           
Root Node          :
  First LP value   : +3.15254901960784e+02
  First LP Iters   :         69 (59636.99 Iter/sec)
  First LP Time    :       0.00
  Final Dual Bound : +6.03716273682654e+03
  Final Root Iters :       1123
  Root LP Estimate : +6.03716273682654e+03
Solution           :
  Solutions found  :          0 (0 improvements)
  Primal Bound     :          -
  Dual Bound       : +6.03716273682654e+03
  Gap              :   infinite
Integrals          :      Total       Avg%
  primal-dual      :       6.54     100.00
  primal-ref       :          -          - (not evaluated)
  dual-ref         :          -          - (not evaluated)
